networks/zoo_58_649/zoo_58_649-lower.txt
Number of groups: 36
Flow 5: {1 5 0} {5 18 0} {18 6 0} 
Flow 23: {14 13 0} {13 27 0} {27 56 0} 
Flow 31: {19 12 0} {12 8 0} {8 37 0} 
Flow 52: {3 13 0} {13 6 0} {6 35 0} 
Flow 59: {3 14 0} {14 15 0} {15 44 0} 
Flow 73: {2 19 0} {19 18 0} {18 47 0} 
Flow 98: {5 1 0} {1 12 0} {12 14 0} {14 29 0} {29 58 0} 
Flow 101: {6 13 0} {13 3 0} 
Flow 104: {6 18 0} {18 7 0} {7 36 0} 
Flow 126: {7 19 0} {19 2 0} {2 4 0} {4 33 0} 
Flow 136: {7 18 0} {18 16 0} {16 17 0} {17 46 0} 
Flow 167: {8 18 0} {18 13 0} {13 25 0} {25 26 0} {26 55 0} 
Flow 172: {9 18 0} {18 8 0} {8 12 0} 
Flow 179: {9 13 0} {13 42 0} 
Flow 196: {10 14 0} {14 3 0} {3 32 0} 
Flow 216: {10 21 0} {21 15 0} {15 27 0} 
Flow 239: {11 13 0} {13 28 0} {28 57 0} 
Flow 276: {13 9 0} {9 38 0} 
Flow 279: {12 41 0} 
Flow 343: {15 26 0} {26 25 0} {25 54 0} 
Flow 362: {16 18 0} {18 19 0} {19 48 0} 
Flow 376: {17 12 0} {12 19 0} {19 7 0} 
Flow 420: {12 1 0} {1 30 0} 
Flow 445: {20 14 0} {14 12 0} {12 4 0} {4 2 0} {2 31 0} 
Flow 448: {20 15 0} {15 11 0} {11 40 0} 
Flow 480: {22 23 0} {23 24 0} {24 53 0} 
Flow 493: {23 22 0} {22 15 0} {15 14 0} {14 10 0} {10 39 0} 
Flow 528: {24 13 0} {13 11 0} {11 15 0} {15 21 0} {21 50 0} 
Flow 552: {25 13 0} {13 14 0} {14 20 0} 
Flow 584: {26 15 0} {15 29 0} {29 28 0} 
Flow 589: {27 13 0} {13 18 0} {18 5 0} {5 34 0} 
Flow 602: {27 15 0} {15 20 0} {20 49 0} 
Flow 627: {28 29 0} {29 15 0} {15 22 0} {22 51 0} 
Flow 628: {28 13 0} {13 24 0} {24 23 0} {23 52 0} 
Flow 638: {29 14 0} {14 43 0} 
Flow 640: {12 17 0} {17 16 0} {16 45 0} 
Time taken running everything: 2 seconds
