networks/zoo_58_649/zoo_58_649-lower.sol
<?xml version = "1.0" encoding="UTF-8" standalone="yes"?>
<CPLEXSolution version="1.2">
 <header
   problemName="networks/zoo_58_649/zoo_58_649-lower.lp"
   solutionName="incumbent"
   solutionIndex="-1"
   objectiveValue="36"
   solutionTypeValue="3"
   solutionTypeString="primal"
   solutionStatusValue="101"
   solutionStatusString="integer optimal solution"
   solutionMethodString="mip"
   primalFeasible="1"
   dualFeasible="1"
   MIPNodes="0"
   MIPIterations="1612"
   writeLevel="3"/>
 <quality
   epInt="1.0000000000000001e-05"
   epRHS="9.9999999999999995e-07"
   maxIntInfeas="0"
   maxPrimalInfeas="0"
   maxX="1"
   maxSlack="1"/>
 <variables>
  <variable name="Y(5,18)" index="249" value="1"/>
  <variable name="Y(23,27)" index="1302" value="1"/>
  <variable name="Y(31,8)" index="1747" value="1"/>
  <variable name="Y(52,6)" index="2963" value="1"/>
  <variable name="Y(59,15)" index="3378" value="1"/>
  <variable name="Y(73,18)" index="4193" value="1"/>
  <variable name="Y(98,29)" index="5654" value="1"/>
  <variable name="Y(101,13)" index="5812" value="1"/>
  <variable name="Y(104,7)" index="5980" value="1"/>
  <variable name="Y(126,4)" index="7253" value="1"/>
  <variable name="Y(136,17)" index="7846" value="1"/>
  <variable name="Y(167,26)" index="9653" value="1"/>
  <variable name="Y(172,8)" index="9925" value="1"/>
  <variable name="Y(179,13)" index="10336" value="1"/>
  <variable name="Y(196,3)" index="11312" value="1"/>
  <variable name="Y(216,15)" index="12484" value="1"/>
  <variable name="Y(239,28)" index="13831" value="1"/>
  <variable name="Y(276,9)" index="15958" value="1"/>
  <variable name="Y(279,12)" index="16135" value="1"/>
  <variable name="Y(343,25)" index="19860" value="1"/>
  <variable name="Y(362,19)" index="20956" value="1"/>
  <variable name="Y(376,19)" index="21768" value="1"/>
  <variable name="Y(420,1)" index="24302" value="1"/>
  <variable name="Y(445,2)" index="25753" value="1"/>
  <variable name="Y(448,11)" index="25936" value="1"/>
  <variable name="Y(480,24)" index="27805" value="1"/>
  <variable name="Y(493,10)" index="28545" value="1"/>
  <variable name="Y(528,21)" index="30586" value="1"/>
  <variable name="Y(552,14)" index="31971" value="1"/>
  <variable name="Y(584,29)" index="33842" value="1"/>
  <variable name="Y(589,5)" index="34108" value="1"/>
  <variable name="Y(602,20)" index="34877" value="1"/>
  <variable name="Y(627,22)" index="36329" value="1"/>
  <variable name="Y(628,23)" index="36388" value="1"/>
  <variable name="Y(638,14)" index="36959" value="1"/>
  <variable name="Y(640,16)" index="37077" value="1"/>
  <variable name="X(1,5,5)" index="37646" value="1"/>
  <variable name="X(1,12,98)" index="38388" value="1"/>
  <variable name="X(1,30,420)" index="39359" value="1"/>
  <variable name="X(2,4,126)" index="39714" value="1"/>
  <variable name="X(2,19,73)" index="40310" value="1"/>
  <variable name="X(2,31,445)" index="41331" value="1"/>
  <variable name="X(3,13,52)" index="41587" value="1"/>
  <variable name="X(3,14,59)" index="42243" value="1"/>
  <variable name="X(3,32,196)" index="43029" value="1"/>
  <variable name="X(4,2,445)" index="43927" value="1"/>
  <variable name="X(4,33,126)" index="44257" value="1"/>
  <variable name="X(5,1,98)" index="44878" value="1"/>
  <variable name="X(5,18,5)" index="45434" value="1"/>
  <variable name="X(5,34,589)" index="46667" value="1"/>
  <variable name="X(6,13,101)" index="46828" value="1"/>
  <variable name="X(6,18,104)" index="47480" value="1"/>
  <variable name="X(6,35,52)" index="48077" value="1"/>
  <variable name="X(7,18,136)" index="48810" value="1"/>
  <variable name="X(7,19,126)" index="49449" value="1"/>
  <variable name="X(7,36,104)" index="50076" value="1"/>
  <variable name="X(8,12,172)" index="50793" value="1"/>
  <variable name="X(8,18,167)" index="51437" value="1"/>
  <variable name="X(8,37,31)" index="51950" value="1"/>
  <variable name="X(9,13,179)" index="52747" value="1"/>
  <variable name="X(9,18,172)" index="53389" value="1"/>
  <variable name="X(9,38,276)" index="54142" value="1"/>
  <variable name="X(10,14,196)" index="54711" value="1"/>
  <variable name="X(10,21,216)" index="55380" value="1"/>
  <variable name="X(10,39,493)" index="56306" value="1"/>
  <variable name="X(11,13,239)" index="56701" value="1"/>
  <variable name="X(11,15,528)" index="57639" value="1"/>
  <variable name="X(11,40,448)" index="58208" value="1"/>
  <variable name="X(12,1,420)" index="58829" value="1"/>
  <variable name="X(12,4,445)" index="59503" value="1"/>
  <variable name="X(12,8,31)" index="59738" value="1"/>
  <variable name="X(12,14,98)" index="60454" value="1"/>
  <variable name="X(12,17,640)" index="61645" value="1"/>
  <variable name="X(12,19,376)" index="62030" value="1"/>
  <variable name="X(12,41,279)" index="62582" value="1"/>
  <variable name="X(13,3,101)" index="63053" value="1"/>
  <variable name="X(13,6,52)" index="63653" value="1"/>
  <variable name="X(13,9,276)" index="64526" value="1"/>
  <variable name="X(13,11,528)" index="65427" value="1"/>
  <variable name="X(13,14,552)" index="66100" value="1"/>
  <variable name="X(13,18,589)" index="66786" value="1"/>
  <variable name="X(13,24,628)" index="67474" value="1"/>
  <variable name="X(13,25,167)" index="67662" value="1"/>
  <variable name="X(13,27,23)" index="68167" value="1"/>
  <variable name="X(13,28,239)" index="69032" value="1"/>
  <variable name="X(13,42,179)" index="69621" value="1"/>
  <variable name="X(14,3,196)" index="70287" value="1"/>
  <variable name="X(14,10,493)" index="71233" value="1"/>
  <variable name="X(14,12,445)" index="71834" value="1"/>
  <variable name="X(14,13,23)" index="72061" value="1"/>
  <variable name="X(14,15,59)" index="72746" value="1"/>
  <variable name="X(14,20,552)" index="73888" value="1"/>
  <variable name="X(14,29,98)" index="74083" value="1"/>
  <variable name="X(14,43,638)" index="75272" value="1"/>
  <variable name="X(15,11,448)" index="75731" value="1"/>
  <variable name="X(15,14,493)" index="76425" value="1"/>
  <variable name="X(15,20,602)" index="77183" value="1"/>
  <variable name="X(15,21,528)" index="77758" value="1"/>
  <variable name="X(15,22,627)" index="78506" value="1"/>
  <variable name="X(15,26,343)" index="78871" value="1"/>
  <variable name="X(15,27,216)" index="79393" value="1"/>
  <variable name="X(15,29,584)" index="80410" value="1"/>
  <variable name="X(15,44,59)" index="80534" value="1"/>
  <variable name="X(16,17,136)" index="81260" value="1"/>
  <variable name="X(16,18,362)" index="82135" value="1"/>
  <variable name="X(16,45,640)" index="83062" value="1"/>
  <variable name="X(17,12,376)" index="83447" value="1"/>
  <variable name="X(17,16,640)" index="84360" value="1"/>
  <variable name="X(17,46,136)" index="84505" value="1"/>
  <variable name="X(18,5,589)" index="85607" value="1"/>
  <variable name="X(18,6,5)" index="85672" value="1"/>
  <variable name="X(18,7,104)" index="86420" value="1"/>
  <variable name="X(18,8,172)" index="87137" value="1"/>
  <variable name="X(18,13,167)" index="87781" value="1"/>
  <variable name="X(18,16,136)" index="88399" value="1"/>
  <variable name="X(18,19,362)" index="89274" value="1"/>
  <variable name="X(18,47,73)" index="89634" value="1"/>
  <variable name="X(19,2,126)" index="90336" value="1"/>
  <variable name="X(19,7,376)" index="91235" value="1"/>
  <variable name="X(19,12,31)" index="91539" value="1"/>
  <variable name="X(19,18,73)" index="92230" value="1"/>
  <variable name="X(19,48,362)" index="93168" value="1"/>
  <variable name="X(20,14,445)" index="93900" value="1"/>
  <variable name="X(20,15,448)" index="94552" value="1"/>
  <variable name="X(20,49,602)" index="95355" value="1"/>
  <variable name="X(21,15,216)" index="95618" value="1"/>
  <variable name="X(21,50,528)" index="96579" value="1"/>
  <variable name="X(22,15,493)" index="97193" value="1"/>
  <variable name="X(22,23,480)" index="97829" value="1"/>
  <variable name="X(22,51,627)" index="98625" value="1"/>
  <variable name="X(23,22,493)" index="99140" value="1"/>
  <variable name="X(23,24,480)" index="99776" value="1"/>
  <variable name="X(23,52,628)" index="100573" value="1"/>
  <variable name="X(24,13,528)" index="101122" value="1"/>
  <variable name="X(24,23,628)" index="101871" value="1"/>
  <variable name="X(24,53,480)" index="102372" value="1"/>
  <variable name="X(25,13,552)" index="103093" value="1"/>
  <variable name="X(25,26,167)" index="103357" value="1"/>
  <variable name="X(25,54,343)" index="104182" value="1"/>
  <variable name="X(26,15,584)" index="105072" value="1"/>
  <variable name="X(26,25,343)" index="105480" value="1"/>
  <variable name="X(26,55,167)" index="105953" value="1"/>
  <variable name="X(27,13,589)" index="107024" value="1"/>
  <variable name="X(27,15,602)" index="107686" value="1"/>
  <variable name="X(27,56,23)" index="107756" value="1"/>
  <variable name="X(28,13,628)" index="109010" value="1"/>
  <variable name="X(28,29,627)" index="109658" value="1"/>
  <variable name="X(28,57,239)" index="109919" value="1"/>
  <variable name="X(29,14,638)" index="110967" value="1"/>
  <variable name="X(29,15,627)" index="111605" value="1"/>
  <variable name="X(29,28,584)" index="112211" value="1"/>
  <variable name="X(29,58,98)" index="112374" value="1"/>
 </variables>
</CPLEXSolution>
